Nb of jobs, Nb of Machines, Time seed, Machine seed, Upper bound, Lower bound
5,10,-1,-1,-1,-1
Times
57,11,12,37,3,27,13,14,36,5
8,52,23,77,51,3,69,80,49,64
90,3,81,79,91,12,60,41,39,39
32,64,77,28,72,65,50,61,40,13
66,12,82,13,13,54,1,2,24,24
Machines
6,5,8,9,4,2,1,7,3,10
9,6,7,2,4,3,10,8,5,1
4,10,2,5,6,3,7,1,9,8
10,8,9,4,6,3,2,7,1,5
10,7,9,1,4,6,8,3,2,5
